(declare-const k Int)
(declare-const |x'| Int)
(declare-const y Int)
(declare-const x Int)
(declare-const term_to_project_onto Real)
(declare-const |c'| Int)
(declare-const term_to_project_onto0 Real)
(declare-const term_to_project_onto1 Real)
(declare-const uninterp Int)
(declare-const uninterp0 Int)
(declare-const |y'| Int)
(declare-const c Int)
(assert (and (<= (- c) 0) (<= (- y) 0) (= (+ y (- c)) 0)
               (= (+ (* 6 x) (* -2 uninterp0) (* -3 uninterp) (- y)) 0)
               (<= (+ (- k) c 1) 0) (= (+ |c'| (- c) -1) 0)
               (= (+ |x'| (- x) (- uninterp) (* -2 y) -1) 0)
               (= (+ |y'| (- y) -1) 0) (<= 0 uninterp0) (<= 0 uninterp)
               (= term_to_project_onto1 (+ |y'| (- y)))
               (= term_to_project_onto0 (+ |x'| (- x)))
               (= term_to_project_onto (+ |c'| (- c)))))
(check-sat)
